8154
39, 37, 24, 5, 15, 6, 4, 25, 12, 28, 27, 47, 26, 14, 13, 52, 11, 51, 33, 43, 10, 9, 8, 41, 45, 19, 3, 17, 21, 42, 2, 7, 30, 29, 16, 20, 50, 23, 31, 18, 1, 22, 32, 49, 36, 35, 34, 44, 46, 48, 38, 40
